Default variable names x1, x2 ... being created.
Default row names c1, c2 ... being created.
Tried aggregator 1 time.
Reduced MIP has 2119 rows, 130 columns, and 4301 nonzeros.
Reduced MIP has 130 binaries, 0 generals, 0 SOSs, and 0 indicators.
Presolve time = 0.00 sec. (4.96 ticks)
Found incumbent of value 0.000000 after 0.01 sec. (6.12 ticks)
Probing fixed 34 vars, tightened 0 bounds.
Probing time = 0.00 sec. (0.69 ticks)
Tried aggregator 1 time.
MIP Presolve eliminated 1207 rows and 34 columns.
Reduced MIP has 912 rows, 96 columns, and 1887 nonzeros.
Reduced MIP has 96 binaries, 0 generals, 0 SOSs, and 0 indicators.
Presolve time = 0.01 sec. (2.36 ticks)
Probing time = 0.00 sec. (0.34 ticks)
Tried aggregator 1 time.
Reduced MIP has 912 rows, 96 columns, and 1887 nonzeros.
Reduced MIP has 96 binaries, 0 generals, 0 SOSs, and 0 indicators.
Presolve time = 0.01 sec. (1.96 ticks)
Probing time = 0.00 sec. (0.34 ticks)
Clique table members: 1157.
MIP emphasis: balance optimality and feasibility.
MIP search method: dynamic search.
Parallel mode: deterministic, using up to 4 threads.
Root relaxation solution time = 0.01 sec. (4.66 ticks)

        Nodes                                         Cuts/
   Node  Left     Objective  IInf  Best Integer    Best Bound    ItCnt     Gap

*     0+    0                            0.0000       31.0000              --- 
      0     0       15.2615    96        0.0000       15.2615      192     --- 
*     0+    0                            1.0000       15.2615              --- 
      0     0       13.2923    92        1.0000  Cliques: 328      216     --- 
      0     0       13.0781    91        1.0000       Cuts: 2      232     --- 
      0     0       13.0035    92        1.0000       Cuts: 2      240     --- 
      0     0       12.9818    92        1.0000   ZeroHalf: 1      252     --- 
      0     0       12.9452    92        1.0000       Cuts: 3      270     --- 
      0     0       12.9206    92        1.0000   ZeroHalf: 2      298     --- 
      0     0       12.8999    92        1.0000   ZeroHalf: 2      310     --- 
      0     0       12.8888    92        1.0000   ZeroHalf: 1      316     --- 
      0     0        cutoff              1.0000        1.0000      326    0.00%
Elapsed time = 0.21 sec. (96.03 ticks, tree = 0.00 MB, solutions = 2)

Clique cuts applied:  249
Zero-half cuts applied:  4
Gomory fractional cuts applied:  3

Root node processing (before b&c):
  Real time             =    0.21 sec. (96.04 ticks)
Parallel b&c, 4 threads:
  Real time             =    0.00 sec. (0.00 ticks)
  Sync time (average)   =    0.00 sec.
  Wait time (average)   =    0.00 sec.
                          ------------
Total (root+branch&cut) =    0.21 sec. (96.04 ticks)
Default variable names x1, x2 ... being created.
Default row names c1, c2 ... being created.
Tried aggregator 1 time.
Reduced MIP has 2119 rows, 130 columns, and 4301 nonzeros.
Reduced MIP has 130 binaries, 0 generals, 0 SOSs, and 0 indicators.
Presolve time = 0.01 sec. (4.96 ticks)
Found incumbent of value 0.000000 after 0.01 sec. (6.12 ticks)
Probing time = 0.00 sec. (0.50 ticks)
Tried aggregator 1 time.
Reduced MIP has 2119 rows, 130 columns, and 4301 nonzeros.
Reduced MIP has 130 binaries, 0 generals, 0 SOSs, and 0 indicators.
Presolve time = 0.01 sec. (4.96 ticks)
Probing time = 0.00 sec. (0.50 ticks)
Clique table members: 2118.
MIP emphasis: balance optimality and feasibility.
MIP search method: dynamic search.
Parallel mode: deterministic, using up to 4 threads.
Root relaxation solution time = 0.03 sec. (7.71 ticks)

        Nodes                                         Cuts/
   Node  Left     Objective  IInf  Best Integer    Best Bound    ItCnt     Gap

*     0+    0                            0.0000       65.0000              --- 
      0     0       46.0000   130        0.0000       46.0000      181     --- 
*     0+    0                            2.0000       46.0000              --- 
      0     0       45.5237   129        2.0000       Cuts: 2      317     --- 
      0     0       45.1423   130        2.0000       Cuts: 3      381     --- 
      0     0       45.0808   129        2.0000   ZeroHalf: 1      414     --- 
      0     2       45.0808   129        2.0000       25.0000      414     --- 
Elapsed time = 0.57 sec. (410.74 ticks, tree = 0.00 MB, solutions = 2)
*   214   157      integral     0        3.0000       25.0000     4484  733.33%
*   214   156      integral     0        3.0000       25.0000     4484  733.33%
    655   418       11.5472    70        3.0000       25.0000    13393  733.33%
   1029   572        8.6557    73        3.0000       17.7049    24395  490.16%
   1470   819        cutoff              3.0000       15.1739    32874  405.80%
   1800   780        5.3333    59        3.0000       11.4894    46542  282.98%
   2277   662        4.1538    58        3.0000        7.5000    58241  150.00%

Zero-half cuts applied:  2
Gomory fractional cuts applied:  2

Root node processing (before b&c):
  Real time             =    0.56 sec. (409.87 ticks)
Parallel b&c, 4 threads:
  Real time             =    1.66 sec. (1498.90 ticks)
  Sync time (average)   =    0.10 sec.
  Wait time (average)   =    0.11 sec.
                          ------------
Total (root+branch&cut) =    2.22 sec. (1908.77 ticks)
